(declare-fun var0 () String)
(assert (str.in.re var0 (re.++ (re.+ (re.* (re.* (re.* (re.* (str.to.re "2")))))) (re.+ (re.union (re.+ (re.+ (re.* (str.to.re "00")))) (re.* (re.* (re.* (str.to.re "1")))))))))
(assert (<= 15 (str.len var0)))
(check-sat)